
Gurobi 11.0.3 (linux64) logging started Mon 18 Nov 2024 09:52:38 PM CST

Set parameter LogFile to value "/home/dlcole3/graph_abstraction/hierarchical_graphs/git_storage/CS1/HP_low_reserves/gurobi_logs/serial/logfile_ST14_4.log"

Gurobi 11.0.3 (linux64) logging started Mon 18 Nov 2024 09:56:57 PM CST

Set parameter LogFile to value "/home/dlcole3/graph_abstraction/hierarchical_graphs/git_storage/CS1/HP_low_reserves/gurobi_logs/serial/logfile_ST14_4.log"
Gurobi Optimizer version 11.0.3 build v11.0.3rc0 (linux64 - "Ubuntu 18.04.3 LTS")

CPU model: Intel(R) Xeon(R) CPU E5-2698 v4 @ 2.20GHz, instruction set [SSE2|AVX|AVX2]
Thread count: 40 physical cores, 80 logical processors, using up to 20 threads

Optimize a model with 29168 rows, 50688 columns and 136175 nonzeros
Model fingerprint: 0xc64e5783
Variable types: 46944 continuous, 3744 integer (3744 binary)
Coefficient statistics:
  Matrix range     [6e-01, 2e+04]
  Objective range  [2e+00, 2e+04]
  Bounds range     [5e-02, 2e+05]
  RHS range        [5e-02, 7e+03]
Presolve removed 14208 rows and 38578 columns
Presolve time: 0.37s
Presolved: 14960 rows, 12110 columns, 63950 nonzeros
Variable types: 9069 continuous, 3041 integer (3041 binary)
Found heuristic solution: objective 5464220.5016
Found heuristic solution: objective 4549290.6596

Root relaxation: objective 1.455509e+05, 8842 iterations, 0.52 seconds (0.42 work units)

    Nodes    |    Current Node    |     Objective Bounds      |     Work
 Expl Unexpl |  Obj  Depth IntInf | Incumbent    BestBd   Gap | It/Node Time

     0     0 145550.918    0   44 4549290.66 145550.918  96.8%     -    1s
H    0     0                    388404.39373 145550.918  62.5%     -    1s
     0     0 145612.946    0   49 388404.394 145612.946  62.5%     -    2s
     0     0 145615.243    0   57 388404.394 145615.243  62.5%     -    2s
H    0     0                    348020.70353 145615.243  58.2%     -    2s
     0     0 145615.243    0   66 348020.704 145615.243  58.2%     -    2s
H    0     0                    149956.42693 145615.243  2.89%     -    2s
     0     0 146242.259    0   71 149956.427 146242.259  2.48%     -    2s
     0     0 146242.259    0   74 149956.427 146242.259  2.48%     -    2s
     0     0 146242.259    0   48 149956.427 146242.259  2.48%     -    2s
     0     0 146242.259    0   48 149956.427 146242.259  2.48%     -    3s
H    0     0                    147772.59354 146242.259  1.04%     -    3s
     0     0 146242.259    0   48 147772.594 146242.259  1.04%     -    3s
     0     0 146242.259    0   28 147772.594 146242.259  1.04%     -    4s
     0     0 146242.259    0   66 147772.594 146242.259  1.04%     -    4s
     0     0 146242.259    0   57 147772.594 146242.259  1.04%     -    4s
     0     0 146350.533    0   71 147772.594 146350.533  0.96%     -    4s
     0     0 146350.533    0   68 147772.594 146350.533  0.96%     -    4s
     0     0 146350.533    0   68 147772.594 146350.533  0.96%     -    5s
     0     0 146350.533    0   71 147772.594 146350.533  0.96%     -    5s
     0     0 146350.533    0   71 147772.594 146350.533  0.96%     -    5s
     0     0 146350.533    0   71 147772.594 146350.533  0.96%     -    5s
     0     2 146350.533    0   69 147772.594 146350.533  0.96%     -    6s
H   86    73                    147726.35703 146429.800  0.88%  68.7    7s
H   96    73                    147708.56302 146429.800  0.87%  67.0    7s
H  443   308                    147657.50181 146429.801  0.83%  34.6    9s
   520   376 147521.341   16   39 147657.502 146429.801  0.83%  34.0   10s
H  835   490                    147657.40354 146431.958  0.83%  32.9   13s
H  837   490                    147322.59655 146431.958  0.60%  32.9   13s
  1764   892 146677.676   13   68 147322.597 146433.749  0.60%  29.1   15s
  3441  1590 147239.475   28   48 147322.597 146683.662  0.43%  24.5   22s
  3456  1598 147173.507   13   41 147322.597 146683.662  0.43%  26.7   25s
H 3537  1536                    147322.59653 146683.662  0.43%  27.0   26s
H 3541  1459                    147322.59641 146683.662  0.43%  27.0   26s
H 3746  1420                    147322.59629 146683.662  0.43%  27.8   27s
H 3748  1351                    147322.59628 146683.662  0.43%  27.8   27s
H 4051  1360                    147317.72234 146683.662  0.43%  26.7   28s
  5066  1643     cutoff   23      147317.722 146683.662  0.43%  23.1   30s
* 5311  1631              97    147310.64771 146684.321  0.43%  22.5   31s

Cutting planes:
  Gomory: 4
  MIR: 4
  Flow cover: 1

Explored 7608 nodes (156103 simplex iterations) in 32.92 seconds (28.39 work units)
Thread count was 20 (of 80 available processors)

Solution count 10: 147311 147318 147323 ... 388404

Optimal solution found (tolerance 3.00e-03)
Best objective 1.473106477100e+05, best bound 1.470575548989e+05, gap 0.1718%

User-callback calls 21408, time in user-callback 0.01 sec
